words_easy_train/words_347_SAT.qaiger
aag 51 16 0 1 35
16
32
26
22
24
6
12
28
2
18
4
10
30
8
20
14
102
34 15 5
36 14 4
38 37 35
40 31 21
42 40 39
44 30 20
46 44 38
48 47 43
50 17 3
52 16 2
54 53 51
56 33 19
58 56 55
60 32 18
62 60 54
64 63 59
66 65 49
68 13 7
70 12 6
72 71 69
74 29 23
76 75 73
78 28 22
80 79 72
82 81 77
84 27 25
86 10 9
88 11 8
90 89 87
92 90 84
94 26 24
96 94 91
98 97 93
100 99 82
102 100 66
i0 1 x2[7]
i1 2 y1[7]
i2 2 y1[4]
i3 2 y1[2]
i4 2 y1[3]
i5 1 x2[2]
i6 1 x2[5]
i7 2 y1[5]
i8 1 x2[0]
i9 2 y1[0]
i10 1 x2[1]
i11 1 x2[4]
i12 2 y1[6]
i13 1 x2[3]
i14 2 y1[1]
i15 1 x2[6]
o0 bool[0]
c
simplified
  ==
    xor
      reverse
        1 x2
      2 y1
    1 x2
