words_easy_train/words_347_SAT.qaiger.qdimacs
p cnf 51 106
a 1 2 3 4 5 6 7 8 0
e 9 10 11 12 13 14 15 16 17 18 19 20 21 22 23 24 25 26 27 28 29 30 31 32 33 34 35 36 37 38 39 40 41 42 43 44 45 46 47 48 49 50 51 0
7 2 17 0
-7 -17 0
-2 -17 0
-7 -2 18 0
7 -18 0
2 -18 0
18 17 19 0
-18 -19 0
-17 -19 0
15 10 20 0
-15 -20 0
-10 -20 0
-20 19 21 0
20 -21 0
-19 -21 0
-15 -10 22 0
15 -22 0
10 -22 0
-22 -19 23 0
22 -23 0
19 -23 0
23 21 24 0
-23 -24 0
-21 -24 0
8 1 25 0
-8 -25 0
-1 -25 0
-8 -1 26 0
8 -26 0
1 -26 0
26 25 27 0
-26 -27 0
-25 -27 0
16 9 28 0
-16 -28 0
-9 -28 0
-28 27 29 0
28 -29 0
-27 -29 0
-16 -9 30 0
16 -30 0
9 -30 0
-30 -27 31 0
30 -31 0
27 -31 0
31 29 32 0
-31 -32 0
-29 -32 0
32 24 33 0
-32 -33 0
-24 -33 0
6 3 34 0
-6 -34 0
-3 -34 0
-6 -3 35 0
6 -35 0
3 -35 0
35 34 36 0
-35 -36 0
-34 -36 0
14 11 37 0
-14 -37 0
-11 -37 0
37 36 38 0
-37 -38 0
-36 -38 0
-14 -11 39 0
14 -39 0
11 -39 0
39 -36 40 0
-39 -40 0
36 -40 0
40 38 41 0
-40 -41 0
-38 -41 0
13 12 42 0
-13 -42 0
-12 -42 0
-5 4 43 0
5 -43 0
-4 -43 0
5 -4 44 0
-5 -44 0
4 -44 0
44 43 45 0
-44 -45 0
-43 -45 0
-45 -42 46 0
45 -46 0
42 -46 0
-13 -12 47 0
13 -47 0
12 -47 0
-47 45 48 0
47 -48 0
-45 -48 0
48 46 49 0
-48 -49 0
-46 -49 0
49 -41 50 0
-49 -50 0
41 -50 0
-50 -33 51 0
50 -51 0
33 -51 0
51 0
